NAME          DCAP_3_4_2_300_SS29
ROWS
 N  OBJ
 L  CON1
 L  CON2
 L  CON3
 L  CON4
 L  CON5
 L  CON6
 L  CON7
 L  CON8
 L  CON9
 L  CON10
 L  CON11
 L  CON12
 E  CON13
 E  CON14
 E  CON15
 E  CON16
 E  CON17
 E  CON18
 E  CON19
 E  CON20
COLUMNS
    x[1,1]    OBJ       6.180167      CON1      1.000000    
    x[1,1]    CON7      -1.000000     CON8      -1.000000   
    x[1,2]    OBJ       5.039546      CON2      1.000000    
    x[1,2]    CON8      -1.000000   
    x[2,1]    OBJ       6.732585      CON3      1.000000    
    x[2,1]    CON9      -1.000000     CON10     -1.000000   
    x[2,2]    OBJ       7.443064      CON4      1.000000    
    x[2,2]    CON10     -1.000000   
    x[3,1]    OBJ       6.563535      CON5      1.000000    
    x[3,1]    CON11     -1.000000     CON12     -1.000000   
    x[3,2]    OBJ       6.054841      CON6      1.000000    
    x[3,2]    CON12     -1.000000   
    MARKER    'MARKER'                'INTORG'
    u[1,1]    OBJ       48.076654     CON1      -1.000000   
    u[1,2]    OBJ       49.466655     CON2      -1.000000   
    u[2,1]    OBJ       49.996186     CON3      -1.000000   
    u[2,2]    OBJ       32.230043     CON4      -1.000000   
    u[3,1]    OBJ       20.066487     CON5      -1.000000   
    u[3,2]    OBJ       27.484319     CON6      -1.000000   
    y[1,1,1]  OBJ       5.950998      CON7      1.250831    
    y[1,1,1]  CON13     1.000000    
    y[1,1,2]  OBJ       8.991204      CON8      0.746622    
    y[1,1,2]  CON14     1.000000    
    y[1,2,1]  OBJ       6.821772      CON7      1.268973    
    y[1,2,1]  CON15     1.000000    
    y[1,2,2]  OBJ       6.276101      CON8      1.195491    
    y[1,2,2]  CON16     1.000000    
    y[1,3,1]  OBJ       5.446787      CON7      0.860232    
    y[1,3,1]  CON17     1.000000    
    y[1,3,2]  OBJ       5.994727      CON8      0.892992    
    y[1,3,2]  CON18     1.000000    
    y[1,4,1]  OBJ       9.910205      CON7      1.235254    
    y[1,4,1]  CON19     1.000000    
    y[1,4,2]  OBJ       5.133990      CON8      1.321149    
    y[1,4,2]  CON20     1.000000    
    y[2,1,1]  OBJ       5.092568      CON9      1.250831    
    y[2,1,1]  CON13     1.000000    
    y[2,1,2]  OBJ       7.303645      CON10     0.746622    
    y[2,1,2]  CON14     1.000000    
    y[2,2,1]  OBJ       9.503985      CON9      1.268973    
    y[2,2,1]  CON15     1.000000    
    y[2,2,2]  OBJ       8.760199      CON10     1.195491    
    y[2,2,2]  CON16     1.000000    
    y[2,3,1]  OBJ       8.433129      CON9      0.860232    
    y[2,3,1]  CON17     1.000000    
    y[2,3,2]  OBJ       9.251406      CON10     0.892992    
    y[2,3,2]  CON18     1.000000    
    y[2,4,1]  OBJ       9.475782      CON9      1.235254    
    y[2,4,1]  CON19     1.000000    
    y[2,4,2]  OBJ       6.859927      CON10     1.321149    
    y[2,4,2]  CON20     1.000000    
    y[3,1,1]  OBJ       6.517353      CON11     1.250831    
    y[3,1,1]  CON13     1.000000    
    y[3,1,2]  OBJ       6.177653      CON12     0.746622    
    y[3,1,2]  CON14     1.000000    
    y[3,2,1]  OBJ       7.137063      CON11     1.268973    
    y[3,2,1]  CON15     1.000000    
    y[3,2,2]  OBJ       8.124019      CON12     1.195491    
    y[3,2,2]  CON16     1.000000    
    y[3,3,1]  OBJ       8.405422      CON11     0.860232    
    y[3,3,1]  CON17     1.000000    
    y[3,3,2]  OBJ       9.189516      CON12     0.892992    
    y[3,3,2]  CON18     1.000000    
    y[3,4,1]  OBJ       7.919027      CON11     1.235254    
    y[3,4,1]  CON19     1.000000    
    y[3,4,2]  OBJ       8.347940      CON12     1.321149    
    y[3,4,2]  CON20     1.000000    
    z[1,1]    OBJ       648.352312    CON13     1.000000    
    z[1,2]    OBJ       608.927828    CON14     1.000000    
    z[2,1]    OBJ       972.430346    CON15     1.000000    
    z[2,2]    OBJ       954.680100    CON16     1.000000    
    z[3,1]    OBJ       750.949071    CON17     1.000000    
    z[3,2]    OBJ       614.138877    CON18     1.000000    
    z[4,1]    OBJ       828.263691    CON19     1.000000    
    z[4,2]    OBJ       602.865368    CON20     1.000000    
    MARKER    'MARKER'                 'INTEND'
RHS
    RHS       CON1      -0.000000     CON2      -0.000000   
    RHS       CON3      -0.000000     CON4      -0.000000   
    RHS       CON5      -0.000000     CON6      -0.000000   
    RHS       CON7      -0.000000     CON8      -0.000000   
    RHS       CON9      -0.000000     CON10     -0.000000   
    RHS       CON11     -0.000000     CON12     -0.000000   
    RHS       CON13     1.000000      CON14     1.000000    
    RHS       CON15     1.000000      CON16     1.000000    
    RHS       CON17     1.000000      CON18     1.000000    
    RHS       CON19     1.000000      CON20     1.000000    
BOUNDS
 BV BOUND     u[1,1]  
 BV BOUND     u[1,2]  
 BV BOUND     u[2,1]  
 BV BOUND     u[2,2]  
 BV BOUND     u[3,1]  
 BV BOUND     u[3,2]  
 BV BOUND     y[1,1,1]
 BV BOUND     y[1,1,2]
 BV BOUND     y[1,2,1]
 BV BOUND     y[1,2,2]
 BV BOUND     y[1,3,1]
 BV BOUND     y[1,3,2]
 BV BOUND     y[1,4,1]
 BV BOUND     y[1,4,2]
 BV BOUND     y[2,1,1]
 BV BOUND     y[2,1,2]
 BV BOUND     y[2,2,1]
 BV BOUND     y[2,2,2]
 BV BOUND     y[2,3,1]
 BV BOUND     y[2,3,2]
 BV BOUND     y[2,4,1]
 BV BOUND     y[2,4,2]
 BV BOUND     y[3,1,1]
 BV BOUND     y[3,1,2]
 BV BOUND     y[3,2,1]
 BV BOUND     y[3,2,2]
 BV BOUND     y[3,3,1]
 BV BOUND     y[3,3,2]
 BV BOUND     y[3,4,1]
 BV BOUND     y[3,4,2]
 BV BOUND     z[1,1]  
 BV BOUND     z[1,2]  
 BV BOUND     z[2,1]  
 BV BOUND     z[2,2]  
 BV BOUND     z[3,1]  
 BV BOUND     z[3,2]  
 BV BOUND     z[4,1]  
 BV BOUND     z[4,2]  
ENDATA
